
  22    0


   0   8 2 3 4 5 7 19 20 21 
   6   5 18 17 11 10 9 
   8   3 11 8 6 
   9   3 16 15 10 
   1   3 14 9 8 
  10   2 13 12 
   6   1 8 
   4   1 22
   6   1 22
   4   1 22
   5   1 22
   3   1 22
   1   1 22
  10   1 22
  10   1 22
   8   1 22
   8   1 22
   7   1 22
   5   1 22
   3   1 22
   2   1 22
   0   0 
